13144 12434 1 3 5 7 8 9 10 11 13 14 15 16 17 19 20 21 24 26 27 28 29 30 31 32 34 36 37 41 43 44 45 46 47 48 50 51 52 55 56 57 58 60 61 62 64 65 66 67 68 70 71 72 75 77 79 81 82 83 84 86 87 88 90 91 92 93 95 96 98 99 100 